Running for instance ./models/rc201.txt
Generating routes...
Execution time:  0.259783066667  minutes
Academic license - for non-commercial use only
Warning: constraint name "Cliente esta na rota" has a space
Optimize a model with 26 rows, 5000 columns and 32868 nonzeros
Variable types: 0 continuous, 5000 integer (0 binary)
Coefficient statistics:
  Matrix range     [1e+00, 1e+00]
  Objective range  [7e+01, 4e+02]
  Bounds range     [1e+00, 1e+00]
  RHS range        [1e+00, 2e+01]
Found heuristic solution: objective 1310.7657957
Presolve removed 0 rows and 1522 columns
Presolve time: 0.03s
Presolved: 26 rows, 3478 columns, 22907 nonzeros
Found heuristic solution: objective 744.0168756
Variable types: 0 continuous, 3478 integer (3478 binary)

Root relaxation: objective 5.202614e+02, 91 iterations, 0.00 seconds

    Nodes    |    Current Node    |     Objective Bounds      |     Work
 Expl Unexpl |  Obj  Depth IntInf | Incumbent    BestBd   Gap | It/Node Time

     0     0  520.26142    0   19  744.01688  520.26142  30.1%     -    0s
H    0     0                     585.2523212  520.26142  11.1%     -    0s
H    0     0                     552.3250288  520.26142  5.81%     -    0s
H    0     0                     527.2959130  520.26142  1.33%     -    0s
     0     0  523.37461    0   17  527.29591  523.37461  0.74%     -    0s

Cutting planes:
  Zero half: 1

Explored 1 nodes (103 simplex iterations) in 0.08 seconds
Thread count was 8 (of 8 available processors)

Solution count 4: 527.296 552.325 585.252 744.017 

Optimal solution found (tolerance 1.00e-04)
Best objective 5.272959129974e+02, best bound 5.272959129974e+02, gap 0.0000%
9 10 17 13 24
11 9 10 17 13 24
9 22 20 24
14 15 2 8 7
14 16 13 17
14 2 8 4
14 21 23 18 19
14 23 21 18
14 16 15 11
12 15 16 17 13 24
12 16 15 11 9 10 13 17 24
2 7 6 8 3 1
5 23 21 19 18 22
14 12 10
14 5 7 6 8
14 5 2 7 3
14 12 16 9
Distance: 2396.89240795
Execution time:  0.266790333333  minutes
